solution status: optimal solution found
objective value:                                   12
shell_j_one.thingy.devices[3].thingy.v1                    1 	(obj:0)
shell_j_one.thingy.devices[2].thingy.v2                    1 	(obj:0)
shell_j_one.thingy.devices[2].thingy.v8                    1 	(obj:0)
shell_j_one.thingy.devices[0].thingy.v0                    1 	(obj:0)
shell_j_one.thingy.devices[1].thingy.v3                    1 	(obj:0)
shell_j_one.thingy.devices[3].thingy.v2                    1 	(obj:0)
shell_j_one.thingy.devices[1].thingy.v2                    1 	(obj:0)
shell_j_one.thingy.devices[3].thingy.v0                    1 	(obj:0)
shell_i_one.thingy.devices[0].thingy.v12                    1 	(obj:0)
shell_j_one.thingy.devices[2].thingy.v3                    1 	(obj:0)
shell_i_one.thingy.devices[0].thingy.v3                    1 	(obj:0)
shell_i_one.thingy.devices[2].thingy.v0                    1 	(obj:0)
shell_j_one.thingy.devices[1].thingy.v0                    1 	(obj:0)
shell_j_one.thingy.devices[2].thingy.v1                    1 	(obj:0)
shell_i_one.thingy.devices[0].thingy.v1                    1 	(obj:0)
shell_j_one.thingy.devices[2].thingy.v11                    1 	(obj:0)
shell_i_one.thingy.devices[1].thingy.v1                    1 	(obj:0)
shell_i_one.thingy.devices[1].thingy.v12                    1 	(obj:0)
shell_i_one.thingy.devices[1].thingy.v8                    1 	(obj:0)
shell_j_one.thingy.devices[0].thingy.v2                    1 	(obj:0)
shell_i_one.thingy.devices[0].thingy.v11                    1 	(obj:0)
shell_j_one.thingy.devices[3].thingy.v3                    1 	(obj:0)
shell_j_one.thingy.devices[3].thingy.v8                    1 	(obj:0)
shell_j_one.thingy.devices[3].thingy.v11                    1 	(obj:0)
shell_j_one.thingy.devices[2].thingy.v12                    1 	(obj:0)
shell_j_one.thingy.devices[1].thingy.v11                    1 	(obj:0)
shell_j_one.thingy.devices[3].thingy.v12                    1 	(obj:0)
shell_j_one.thingy.devices[0].thingy.v8                    1 	(obj:0)
one.thingy.devices[2].thingy.v0_y                   13 	(obj:0)
one.thingy.devices[2].thingy.v0_z                  -16 	(obj:0)
one.thingy.devices[1].thingy.v3_z                   12 	(obj:0)
one.thingy.devices[3].thingy.v1_z                   16 	(obj:0)
one.thingy.devices[1].thingy.v0_x                    9 	(obj:0)
one.thingy.devices[1].thingy.v0_y                   13 	(obj:0)
one.thingy.devices[1].thingy.v0_z                  -15 	(obj:0)
one.thingy.devices[3].thingy.v1_x                   11 	(obj:0)
one.thingy.devices[3].thingy.v2_x                    7 	(obj:0)
one.thingy.devices[2].thingy.v1_x                   10 	(obj:0)
one.thingy.devices[2].thingy.v1_y                   13 	(obj:0)
one.thingy.devices[2].thingy.v1_z                   12 	(obj:0)
one.thingy.devices[3].thingy.v2_y                   13 	(obj:0)
one.thingy.devices[3].thingy.v2_z                   16 	(obj:0)
one.thingy.devices[0].thingy.v1_x                   13 	(obj:0)
one.thingy.devices[0].thingy.v1_y                   13 	(obj:0)
one.thingy.devices[0].thingy.v1_z                   17 	(obj:0)
one.thingy.devices[2].thingy.v8_x                    9 	(obj:0)
one.thingy.devices[2].thingy.v8_y                   13 	(obj:0)
one.thingy.devices[2].thingy.v11_x                    5 	(obj:0)
one.thingy.devices[2].thingy.v11_y                   13 	(obj:0)
one.thingy.devices[2].thingy.v11_z                   -6 	(obj:0)
one.thingy.devices[1].thingy.v2_x                   12 	(obj:0)
one.thingy.devices[1].thingy.v2_y                   13 	(obj:0)
one.thingy.devices[1].thingy.v1_x                   13 	(obj:0)
one.thingy.devices[1].thingy.v1_y                   13 	(obj:0)
one.thingy.devices[1].thingy.v1_z                   13 	(obj:0)
one.thingy.devices[1].thingy.v2_z                   12 	(obj:0)
one.thingy.devices[1].thingy.v12_x                   13 	(obj:0)
one.thingy.devices[1].thingy.v12_y                   13 	(obj:0)
one.thingy.devices[1].thingy.v12_z                  -15 	(obj:0)
one.thingy.devices[3].thingy.v1_y                   13 	(obj:0)
one.thingy.devices[3].thingy.v0_x                    9 	(obj:0)
one.thingy.devices[1].thingy.v8_x                   13 	(obj:0)
one.thingy.devices[1].thingy.v8_y                   13 	(obj:0)
one.thingy.devices[3].thingy.v0_y                   13 	(obj:0)
one.thingy.devices[3].thingy.v0_z                  -12 	(obj:0)
one.thingy.devices[0].thingy.v2_x                    9 	(obj:0)
one.thingy.devices[0].thingy.v2_y                   13 	(obj:0)
one.thingy.devices[0].thingy.v2_z                   16 	(obj:0)
one.thingy.devices[2].thingy.v2_x                    8 	(obj:0)
one.thingy.devices[0].thingy.v0_x                   12 	(obj:0)
one.thingy.devices[0].thingy.v11_x                   13 	(obj:0)
one.thingy.devices[0].thingy.v11_y                   13 	(obj:0)
one.thingy.devices[0].thingy.v11_z                   -1 	(obj:0)
one.thingy.devices[0].thingy.v12_x                   13 	(obj:0)
one.thingy.devices[0].thingy.v12_y                   13 	(obj:0)
one.thingy.devices[3].thingy.v3_x                    8 	(obj:0)
one.thingy.devices[3].thingy.v3_y                   13 	(obj:0)
one.thingy.devices[3].thingy.v3_z                   16 	(obj:0)
one.thingy.devices[0].thingy.v12_z                  -11 	(obj:0)
one.thingy.devices[0].thingy.v0_y                   13 	(obj:0)
one.thingy.devices[3].thingy.v8_x                    5 	(obj:0)
one.thingy.devices[3].thingy.v8_y                   13 	(obj:0)
one.thingy.devices[0].thingy.v0_z                  -11 	(obj:0)
one.thingy.devices[2].thingy.v3_x                    9 	(obj:0)
one.thingy.devices[3].thingy.v11_x                    1 	(obj:0)
one.thingy.devices[3].thingy.v11_y                   13 	(obj:0)
one.thingy.devices[3].thingy.v11_z                   -2 	(obj:0)
one.thingy.devices[2].thingy.v3_y                   13 	(obj:0)
one.thingy.devices[2].thingy.v3_z                   12 	(obj:0)
one.thingy.devices[2].thingy.v12_x                    9 	(obj:0)
one.thingy.devices[2].thingy.v12_y                   13 	(obj:0)
one.thingy.devices[2].thingy.v12_z                  -16 	(obj:0)
one.thingy.devices[2].thingy.v2_y                   13 	(obj:0)
one.thingy.devices[2].thingy.v2_z                   12 	(obj:0)
one.thingy.devices[1].thingy.v11_x                    9 	(obj:0)
one.thingy.devices[1].thingy.v11_y                   13 	(obj:0)
one.thingy.devices[1].thingy.v11_z                   -5 	(obj:0)
one.thingy.devices[0].thingy.v3_x                   13 	(obj:0)
one.thingy.devices[0].thingy.v3_y                   13 	(obj:0)
one.thingy.devices[3].thingy.v12_x                   11 	(obj:0)
one.thingy.devices[3].thingy.v12_y                   13 	(obj:0)
one.thingy.devices[3].thingy.v12_z                  -12 	(obj:0)
one.thingy.devices[0].thingy.v3_z                   16 	(obj:0)
one.thingy.devices[1].thingy.v3_x                   13 	(obj:0)
one.thingy.devices[0].thingy.v8_x                   13 	(obj:0)
one.thingy.devices[0].thingy.v8_y                   13 	(obj:0)
one.thingy.devices[0].thingy.v8_z                    1 	(obj:0)
one.thingy.devices[1].thingy.v3_y                   13 	(obj:0)
one.thingy.devices[2].thingy.v0_x                   13 	(obj:0)
x150                                                1 	(obj:1)
x155                                                3 	(obj:1)
x167                                                1 	(obj:1)
x170                                                2 	(obj:1)
x173                                                2 	(obj:1)
x191                                                1 	(obj:1)
x206                                                2 	(obj:1)
